data_180319-ICSD
#©2012 by Fachinformationszentrum Karlsruhe, and the U.S. Secretary of 
#Commerce on behalf of the United States.  All rights reserved.
_database_code_ICSD                180319
_audit_creation_date               2011/08/01
_chemical_name_systematic
;
Trilithium Tetrathiophosphate - Beta
;
_chemical_formula_structural       'Li3 (P S4)'
_chemical_formula_sum              'Li3 P1 S4'
_publ_section_title
;
Crystal structure and phase transitions of the lithium ionic 
conductor Li3 P S4
;
loop_
_citation_id
_citation_journal_abbrev
_citation_year
_citation_journal_volume
_citation_page_first
_citation_page_last
_citation_journal_id_ASTM
primary 'Solid State Ionics' 2011 182 53 58 SSIOD3
_publ_author_name
;
Homma, K.;Yonemura, M.;Kobayashi, T.;Nagao, M.;Hirayama, M.;Kanno, R.
;
_cell_length_a                     12.8190(5)
_cell_length_b                     8.2195(4)
_cell_length_c                     6.1236(2)
_cell_angle_alpha                  90.
_cell_angle_beta                   90.
_cell_angle_gamma                  90.
_cell_volume                       645.22
_cell_formula_units_Z              4
_symmetry_space_group_name_H-M     'P n m a'
_symmetry_Int_Tables_number        62
_refine_ls_R_factor_all            0.0468
loop_
_symmetry_equiv_pos_site_id
_symmetry_equiv_pos_as_xyz
  1	'x+1/2, y, -z+1/2'
  2	'x, -y+1/2, z'
  3	'-x+1/2, y+1/2, z+1/2'
  4	'-x, -y, -z'
  5	'-x+1/2, -y, z+1/2'
  6	'-x, y+1/2, -z'
  7	'x+1/2, -y+1/2, -z+1/2'
  8	'x, y, z'
loop_
_atom_type_symbol
_atom_type_oxidation_number
Li1	1
Li2	1
Li3	1
P1	5
S1	-2
S2	-2
S3	-2
loop_
_atom_site_label
_atom_site_type_symbol
_atom_site_symmetry_multiplicity
_atom_site_Wyckoff_symbol
_atom_site_fract_x
_atom_site_fract_y
_atom_site_fract_z
_atom_site_occupancy
_atom_site_attached_hydrogens
_atom_site_B_iso_or_equiv
Li1 Li1+ 8 d 0.3562(9) 0.013(19) 0.439(2)	1. 0 7.7(2) 
Li2 Li1+ 4 b 0 0 0.5				0.70(16) 0 7.7(2) 
Li3 Li1+ 4 c 0.999(6) 0.250 0.889(11)		0.30(16) 0 7.7(2) 
P1 P5+ 4 c 0.0872(2) 0.250 0.1719(5)		1. 0 1.62(5) 
S1 S2- 8 d 0.1551(13) 0.0458(2) 0.2852(3) 1. 0 2.61(4) 
S2 S2- 4 c 0.9346(2) 0.250 0.2574(6) 1. 0 2.61(4) 
S3 S2- 4 c 0.1068(2) 0.250 0.8366(4) 1. 0 2.61(4) 

#End of data_180319-ICSD


